c SAT Generator for power-law distributed variable frequencies
c -g u -v 20 -c 91 -k 3 -p 2.750000 -b 3.200000 -f /home/schmidt/Devel/ni-kop-sat/data/ensemble/ruf20-91/ruf20-91-432 -u 1 -U 1 -s 3059563135
p cnf 20 91
-1 -3 5 0
-10 12 16 0
1 12 14 0
7 -10 11 0
-1 11 -20 0
4 11 18 0
4 -13 16 0
1 -4 14 0
6 9 18 0
-13 15 -18 0
-4 12 -18 0
-1 -18 20 0
-2 -3 11 0
-3 19 20 0
-6 -11 12 0
3 9 17 0
-3 9 15 0
-2 6 17 0
6 17 -18 0
-1 12 -16 0
-10 13 -20 0
-6 9 11 0
7 8 9 0
3 9 -20 0
-12 -18 -20 0
-7 -19 -20 0
5 -15 -18 0
-5 14 -15 0
-3 -16 18 0
8 9 -20 0
3 -4 -20 0
-6 -12 -19 0
-6 -12 19 0
-7 8 11 0
-6 -7 17 0
2 -3 14 0
2 12 15 0
-5 -6 19 0
5 6 -8 0
-1 10 20 0
-11 -18 -20 0
3 -7 11 0
2 16 18 0
7 -14 17 0
2 6 20 0
6 -14 16 0
-11 -14 -20 0
-1 -3 19 0
-13 18 20 0
-1 4 -6 0
-3 -12 -19 0
-8 -9 -13 0
-1 7 16 0
-2 -3 17 0
5 7 -18 0
4 -16 -20 0
-1 8 -20 0
2 4 -7 0
-5 -13 15 0
5 7 10 0
-3 12 19 0
-6 -9 20 0
-1 -5 -12 0
2 -5 -15 0
-8 -10 11 0
-3 -9 17 0
13 16 -19 0
-1 -2 12 0
-4 -5 -20 0
9 -11 -14 0
-3 -10 17 0
11 17 -18 0
3 7 -8 0
-2 -8 13 0
-2 12 15 0
-3 6 14 0
-2 9 16 0
3 -6 17 0
12 -16 20 0
-3 -10 16 0
2 3 7 0
-8 -9 10 0
8 -16 18 0
7 8 -19 0
13 -18 20 0
-6 14 18 0
2 -6 -8 0
-2 3 14 0
4 -9 -15 0
3 4 17 0
-8 9 11 0
